p edge 121 304
e 1 4
e 1 5
e 1 7
e 1 9
e 1 10
e 1 14
e 1 16
e 1 21
e 1 22
e 1 31
e 1 57
e 1 59
e 1 69
e 1 71
e 1 74
e 2 4
e 2 5
e 2 11
e 2 21
e 2 27
e 2 35
e 2 42
e 2 100
e 2 101
e 3 7
e 3 9
e 3 11
e 3 18
e 3 38
e 3 41
e 3 42
e 3 50
e 3 53
e 3 73
e 3 75
e 4 7
e 4 16
e 4 24
e 4 35
e 4 42
e 4 57
e 4 58
e 4 63
e 4 68
e 4 83
e 5 7
e 5 23
e 5 27
e 5 32
e 5 41
e 5 58
e 5 70
e 5 73
e 6 16
e 6 21
e 6 22
e 6 25
e 6 30
e 6 41
e 6 47
e 6 50
e 6 95
e 7 11
e 7 13
e 7 16
e 7 23
e 7 27
e 7 32
e 7 73
e 7 75
e 7 77
e 7 96
e 7 104
e 8 12
e 8 14
e 8 17
e 8 26
e 8 29
e 8 34
e 8 49
e 8 69
e 8 74
e 8 84
e 8 109
e 9 16
e 9 22
e 9 24
e 9 25
e 9 28
e 9 31
e 9 42
e 9 54
e 9 112
e 10 14
e 10 17
e 10 21
e 10 28
e 10 39
e 10 44
e 10 50
e 10 51
e 10 64
e 11 15
e 11 21
e 11 29
e 11 41
e 11 43
e 11 49
e 11 50
e 11 56
e 11 73
e 11 75
e 11 110
e 12 14
e 12 17
e 12 19
e 12 26
e 12 29
e 12 34
e 12 69
e 12 74
e 12 84
e 13 27
e 13 32
e 13 68
e 13 70
e 13 90
e 13 96
e 14 21
e 14 43
e 14 51
e 14 69
e 14 74
e 14 84
e 15 23
e 15 43
e 15 44
e 15 49
e 15 58
e 16 22
e 16 24
e 16 31
e 17 18
e 17 26
e 17 28
e 17 29
e 17 34
e 17 38
e 17 47
e 18 38
e 18 53
e 19 33
e 19 48
e 19 55
e 19 83
e 20 33
e 20 45
e 20 48
e 20 65
e 20 76
e 20 82
e 20 114
e 21 27
e 21 47
e 21 100
e 21 101
e 22 25
e 22 31
e 23 27
e 23 32
e 23 45
e 23 46
e 23 65
e 23 66
e 24 35
e 24 63
e 24 78
e 24 80
e 25 27
e 25 59
e 25 95
e 26 29
e 26 30
e 26 34
e 26 40
e 26 53
e 27 32
e 27 70
e 27 90
e 27 100
e 27 101
e 28 54
e 28 97
e 28 98
e 29 34
e 29 49
e 29 56
e 29 88
e 29 110
e 30 38
e 30 40
e 30 52
e 30 53
e 30 75
e 31 72
e 31 112
e 32 42
e 32 81
e 32 96
e 33 83
e 33 108
e 34 71
e 34 109
e 35 36
e 35 42
e 35 55
e 35 78
e 36 55
e 36 61
e 36 87
e 36 92
e 36 117
e 37 60
e 37 72
e 37 82
e 37 85
e 37 113
e 37 118
e 38 53
e 39 51
e 39 62
e 39 64
e 39 99
e 40 53
e 40 89
e 40 107
e 40 121
e 41 50
e 42 81
e 43 49
e 43 51
e 43 56
e 44 50
e 45 46
e 45 48
e 45 65
e 46 48
e 46 65
e 46 66
e 48 55
e 48 65
e 48 66
e 49 88
e 51 62
e 52 75
e 53 107
e 54 91
e 54 97
e 54 98
e 55 80
e 56 110
e 57 58
e 57 59
e 57 83
e 57 103
e 58 70
e 58 73
e 58 83
e 59 69
e 60 62
e 60 76
e 60 85
e 60 93
e 60 105
e 60 106
e 60 113
e 61 94
e 62 79
e 62 85
e 63 67
e 64 99
e 67 102
e 69 71
e 69 74
e 70 73
e 70 90
e 71 74
e 73 75
e 76 82
e 76 93
e 76 105
e 76 106
e 82 118
e 86 89
e 86 111
e 87 92
e 87 117
e 93 105
e 93 106
e 97 98
e 100 101
e 105 106
e 115 116
e 119 120
